400, 40235
292, 292
222, 222
248, 248
160, 160
260, 260
106, 106
292, 292
30, 30
264, 264
164, 164
382, 382
18, 18
394, 394
128, 128
238, 238
226, 226
198, 198
102, 102
328, 328
152, 152
4, 4
358, 358
50, 50
140, 140
46, 46
48, 48
62, 62
226, 226
238, 238
378, 378
394, 394
222, 222
328, 328
58, 58
398, 398
54, 54
114, 114
352, 352
314, 314
384, 384
396, 396
18, 18
84, 84
234, 234
208, 208
14, 14
240, 240
234, 234
392, 392
230, 230
384, 384
58, 58
166, 166
46, 46
260, 260
342, 342
324, 324
38, 38
400, 400
270, 270
296, 296
278, 278
138, 138
286, 286
370, 370
308, 308
366, 366
262, 262
86, 86
226, 226
142, 142
258, 258
274, 274
70, 70
232, 232
286, 286
26, 26
114, 114
4, 4
18, 18
216, 216
146, 146
170, 170
104, 104
360, 360
20, 20
368, 368
112, 112
68, 68
288, 288
108, 108
392, 392
110, 110
376, 376
104, 104
350, 350
292, 292
60, 60
314, 314
164, 164
36, 36
390, 390
164, 164
166, 166
348, 348
2, 2
398, 398
144, 144
284, 284
286, 286
322, 322
14, 14
362, 362
288, 288
124, 124
280, 280
224, 224
332, 332
360, 360
174, 174
262, 262
246, 246
50, 50
150, 150
280, 280
120, 120
298, 298
342, 342
244, 244
104, 104
326, 326
262, 262
308, 308
76, 76
18, 18
50, 50
208, 208
122, 122
122, 122
360, 360
26, 26
168, 168
138, 138
210, 210
242, 242
130, 130
328, 328
44, 44
274, 274
26, 26
34, 34
40, 40
282, 282
122, 122
56, 56
72, 72
376, 376
36, 36
368, 368
40, 40
116, 116
188, 188
216, 216
190, 190
84, 84
202, 202
108, 108
360, 360
210, 210
354, 354
112, 112
102, 102
170, 170
146, 146
100, 100
98, 98
230, 230
174, 174
308, 308
106, 106
274, 274
210, 210
224, 224
398, 398
166, 166
208, 208
306, 306
116, 116
82, 82
134, 134
274, 274
40, 40
344, 344
218, 218
354, 354
64, 64
398, 398
390, 390
278, 278
94, 94
54, 54
368, 368
308, 308
176, 176
380, 380
66, 66
132, 132
290, 290
40, 40
394, 394
370, 370
324, 324
272, 272
10, 10
330, 330
68, 68
94, 94
366, 366
340, 340
92, 92
90, 90
364, 364
386, 386
202, 202
150, 150
88, 88
328, 328
258, 258
386, 386
352, 352
228, 228
200, 200
208, 208
278, 278
248, 248
250, 250
214, 214
154, 154
282, 282
216, 216
78, 78
36, 36
232, 232
382, 382
102, 102
2, 2
144, 144
210, 210
118, 118
54, 54
386, 386
40, 40
262, 262
176, 176
180, 180
114, 114
254, 254
202, 202
98, 98
102, 102
340, 340
352, 352
344, 344
88, 88
114, 114
88, 88
356, 356
120, 120
62, 62
144, 144
62, 62
356, 356
248, 248
6, 6
376, 376
126, 126
36, 36
16, 16
294, 294
344, 344
306, 306
220, 220
48, 48
90, 90
374, 374
224, 224
254, 254
6, 6
58, 58
52, 52
222, 222
338, 338
282, 282
182, 182
22, 22
148, 148
356, 356
60, 60
362, 362
142, 142
292, 292
278, 278
208, 208
222, 222
222, 222
32, 32
166, 166
310, 310
222, 222
344, 344
196, 196
106, 106
372, 372
20, 20
242, 242
324, 324
80, 80
198, 198
240, 240
102, 102
168, 168
152, 152
180, 180
24, 24
312, 312
170, 170
326, 326
32, 32
150, 150
292, 292
110, 110
352, 352
128, 128
386, 386
88, 88
184, 184
292, 292
122, 122
328, 328
298, 298
332, 332
158, 158
74, 74
238, 238
196, 196
324, 324
60, 60
126, 126
88, 88
34, 34
2, 2
362, 362
160, 160
158, 158
264, 264
254, 254
144, 144
60, 60
376, 376
30, 30
190, 190
164, 164
242, 242
272, 272
210, 210
6, 6
10, 10
374, 374
268, 268
242, 242
242, 242
336, 336
348, 348
8, 8
286, 286
312, 312
354, 354
30, 30
194, 194
8, 8
228, 228
376, 376
262, 262
228, 228
324, 324
342, 342
332, 332
68, 68
56, 56
132, 132
66, 66
196, 196
336, 336
32, 32
174, 174
182, 182
130, 130
40, 40
150, 150
188, 188
